output/conservation_ilp.lp
Maximize
  0.000111683 Z_117_0_0 + 0.00768186027628793 Z_117_0_1
   + 0.6843344949071767 Z_117_0_2 + 0.00464236272366503 Z_117_0_3
   + 0.2032295990443964 Z_117_0_4 + 9.3539129807101399e-04 Z_564_0_0
   + 0.00167904202345119 Z_564_0_1 + 0.7072457078387338 Z_564_0_2
   + 0.00612132091907231 Z_564_0_3 + 0.1840185379206718 Z_564_0_4
   + 0.00343163580739374 Z_423_2_0 + 0.0203446261273267 Z_423_2_1
   + 0.0361132885880637 Z_423_2_2 + 0.0492996086321113 Z_423_2_3
   + 0.7908108408451046 Z_423_2_4 + 0.0424393318023535 Z_423_7_0
   + 0.00835314465068518 Z_423_7_1 + 0.0401321822034897 Z_423_7_2
   + 0.0423928440682661 Z_423_7_3 + 0.7666824972752057 Z_423_7_4
   + 0.00343163580739374 Z_423_4_0 + 0.0203446261273267 Z_423_4_1
   + 0.0361132885880637 Z_423_4_2 + 0.0492996086321113 Z_423_4_3
   + 0.7908108408451046 Z_423_4_4 + 0.0579231727555368 Z_423_6_0
   + 0.0120746523157151 Z_423_6_1 + 0.0385375112876078 Z_423_6_2
   + 0.0444684361466928 Z_423_6_3 + 0.7469962274944475 Z_423_6_4
   + 0.0743750805488266 Z_423_5_0 + 0.0110919927871587 Z_423_5_1
   + 0.0268721799238949 Z_423_5_2 + 0.0307808639898654 Z_423_5_3
   + 0.7568798827502544 Z_423_5_4 + 0.00343163580739374 Z_423_1_0
   + 0.0203446261273267 Z_423_1_1 + 0.0361132885880637 Z_423_1_2
   + 0.0492996086321113 Z_423_1_3 + 0.7908108408451046 Z_423_1_4
   + 0.00167796837460887 Z_423_8_0 + 0.0375062708262958 Z_423_8_1
   + 0.0380558676875499 Z_423_8_2 + 0.1570131973514212 Z_423_8_3
   + 0.6657466957601242 Z_423_8_4 + 0.1407091756180474 Z_423_10_0
   + 0.0986491200364447 Z_423_10_1 + 0.0133220987001429 Z_423_10_2
   + 0.1496803481603496 Z_423_10_3 + 0.4976392574850155 Z_423_10_4
   + 0.00167796837460887 Z_423_9_0 + 0.0375062708262958 Z_423_9_1
   + 0.0380558676875499 Z_423_9_2 + 0.1570131973514212 Z_423_9_3
   + 0.6657466957601242 Z_423_9_4 + 9.9344882738852235e-04 Z_423_0_0
   + 8.5024666378519036e-04 Z_423_0_1 + 0.643537825213812 Z_423_0_2
   + 0.00263475610947631 Z_423_0_3 + 0.2519837231855381 Z_423_0_4
   + 0.00288962201267036 Z_627_1_0 + 0.00553173922988537 Z_627_1_1
   + 0.4211654925439947 Z_627_1_2 + 0.000117517 Z_627_1_3
   + 0.4702956293056466 Z_627_1_4 + 0.3718935016123044 Z_627_2_0
   + 0.0203059479527358 Z_627_2_1 + 0.00291415191646788 Z_627_2_2
   + 0.0151099750638075 Z_627_2_3 + 0.4897764234546843 Z_627_2_4
   + 0.0010691914684053 Z_627_0_0 + 9.1336059619537507e-04 Z_627_0_1
   + 0.7070557811979521 Z_627_0_2 + 0.00515791779443561 Z_627_0_3
   + 0.1858037489430116 Z_627_0_4 + 7.9760552028463369e-04 Z_650_0_0
   + 0.00142724930391866 Z_650_0_1 + 0.6628048886260166 Z_650_0_2
   + 0.00287900925203684 Z_650_0_3 + 0.2320912472977432 Z_650_0_4
Subject To
 constraint1_1170: Z_117_0_0 + Z_117_0_1 + Z_117_0_2 + Z_117_0_3
   + Z_117_0_4 <= 1
 constraint1_5640: Z_564_0_0 + Z_564_0_1 + Z_564_0_2 + Z_564_0_3
   + Z_564_0_4 <= 1
 constraint1_4232: Z_423_2_0 + Z_423_2_1 + Z_423_2_2 + Z_423_2_3
   + Z_423_2_4 <= 1
 constraint1_4237: Z_423_7_0 + Z_423_7_1 + Z_423_7_2 + Z_423_7_3
   + Z_423_7_4 <= 1
 constraint1_4234: Z_423_4_0 + Z_423_4_1 + Z_423_4_2 + Z_423_4_3
   + Z_423_4_4 <= 1
 constraint1_4236: Z_423_6_0 + Z_423_6_1 + Z_423_6_2 + Z_423_6_3
   + Z_423_6_4 <= 1
 constraint1_4235: Z_423_5_0 + Z_423_5_1 + Z_423_5_2 + Z_423_5_3
   + Z_423_5_4 <= 1
 constraint1_4231: Z_423_1_0 + Z_423_1_1 + Z_423_1_2 + Z_423_1_3
   + Z_423_1_4 <= 1
 constraint1_4238: Z_423_8_0 + Z_423_8_1 + Z_423_8_2 + Z_423_8_3
   + Z_423_8_4 <= 1
 constraint1_42310: Z_423_10_0 + Z_423_10_1 + Z_423_10_2 + Z_423_10_3
   + Z_423_10_4 <= 1
 constraint1_4239: Z_423_9_0 + Z_423_9_1 + Z_423_9_2 + Z_423_9_3
   + Z_423_9_4 <= 1
 constraint1_4230: Z_423_0_0 + Z_423_0_1 + Z_423_0_2 + Z_423_0_3
   + Z_423_0_4 <= 1
 constraint1_6271: Z_627_1_0 + Z_627_1_1 + Z_627_1_2 + Z_627_1_3
   + Z_627_1_4 <= 1
 constraint1_6272: Z_627_2_0 + Z_627_2_1 + Z_627_2_2 + Z_627_2_3
   + Z_627_2_4 <= 1
 constraint1_6270: Z_627_0_0 + Z_627_0_1 + Z_627_0_2 + Z_627_0_3
   + Z_627_0_4 <= 1
 constraint1_6500: Z_650_0_0 + Z_650_0_1 + Z_650_0_2 + Z_650_0_3
   + Z_650_0_4 <= 1
 constraint2_1170: Z_117_0_0 <= 1
 constraint2_1171: Z_117_0_1 <= 1
 constraint2_1172: Z_117_0_2 <= 1
 constraint2_1173: Z_117_0_3 <= 1
 constraint2_5640: Z_564_0_0 <= 1
 constraint2_5641: Z_564_0_1 <= 1
 constraint2_5642: Z_564_0_2 <= 1
 constraint2_5643: Z_564_0_3 <= 1
 constraint2_4230: Z_423_2_0 + Z_423_7_0 + Z_423_4_0 + Z_423_6_0
   + Z_423_5_0 + Z_423_1_0 + Z_423_8_0 + Z_423_10_0 + Z_423_9_0 + Z_423_0_0
   <= 1
 constraint2_4231: Z_423_2_1 + Z_423_7_1 + Z_423_4_1 + Z_423_6_1
   + Z_423_5_1 + Z_423_1_1 + Z_423_8_1 + Z_423_10_1 + Z_423_9_1 + Z_423_0_1
   <= 1
 constraint2_4232: Z_423_2_2 + Z_423_7_2 + Z_423_4_2 + Z_423_6_2
   + Z_423_5_2 + Z_423_1_2 + Z_423_8_2 + Z_423_10_2 + Z_423_9_2 + Z_423_0_2
   <= 1
 constraint2_4233: Z_423_2_3 + Z_423_7_3 + Z_423_4_3 + Z_423_6_3
   + Z_423_5_3 + Z_423_1_3 + Z_423_8_3 + Z_423_10_3 + Z_423_9_3 + Z_423_0_3
   <= 1
 constraint2_6270: Z_627_1_0 + Z_627_2_0 + Z_627_0_0 <= 1
 constraint2_6271: Z_627_1_1 + Z_627_2_1 + Z_627_0_1 <= 1
 constraint2_6272: Z_627_1_2 + Z_627_2_2 + Z_627_0_2 <= 1
 constraint2_6273: Z_627_1_3 + Z_627_2_3 + Z_627_0_3 <= 1
 constraint2_6500: Z_650_0_0 <= 1
 constraint2_6501: Z_650_0_1 <= 1
 constraint2_6502: Z_650_0_2 <= 1
 constraint2_6503: Z_650_0_3 <= 1
Bounds
Binaries
 Z_117_0_0 Z_117_0_1 Z_117_0_2 Z_117_0_3 Z_117_0_4 Z_564_0_0 Z_564_0_1
 Z_564_0_2 Z_564_0_3 Z_564_0_4 Z_423_2_0 Z_423_2_1 Z_423_2_2 Z_423_2_3
 Z_423_2_4 Z_423_7_0 Z_423_7_1 Z_423_7_2 Z_423_7_3 Z_423_7_4 Z_423_4_0
 Z_423_4_1 Z_423_4_2 Z_423_4_3 Z_423_4_4 Z_423_6_0 Z_423_6_1 Z_423_6_2
 Z_423_6_3 Z_423_6_4 Z_423_5_0 Z_423_5_1 Z_423_5_2 Z_423_5_3 Z_423_5_4
 Z_423_1_0 Z_423_1_1 Z_423_1_2 Z_423_1_3 Z_423_1_4 Z_423_8_0 Z_423_8_1
 Z_423_8_2 Z_423_8_3 Z_423_8_4 Z_423_10_0 Z_423_10_1 Z_423_10_2 Z_423_10_3
 Z_423_10_4 Z_423_9_0 Z_423_9_1 Z_423_9_2 Z_423_9_3 Z_423_9_4 Z_423_0_0
 Z_423_0_1 Z_423_0_2 Z_423_0_3 Z_423_0_4 Z_627_1_0 Z_627_1_1 Z_627_1_2
 Z_627_1_3 Z_627_1_4 Z_627_2_0 Z_627_2_1 Z_627_2_2 Z_627_2_3 Z_627_2_4
 Z_627_0_0 Z_627_0_1 Z_627_0_2 Z_627_0_3 Z_627_0_4 Z_650_0_0 Z_650_0_1
 Z_650_0_2 Z_650_0_3 Z_650_0_4
End
