output/conservation_ilp.mps
NAME conservation_srl_ilp
* Max problem is converted into Min one
ROWS
 N  OBJ
 L  constraint1_1170
 L  constraint1_5640
 L  constraint1_4232
 L  constraint1_4237
 L  constraint1_4234
 L  constraint1_4236
 L  constraint1_4235
 L  constraint1_4231
 L  constraint1_4238
 L  constraint1_42310
 L  constraint1_4239
 L  constraint1_4230
 L  constraint1_6271
 L  constraint1_6272
 L  constraint1_6270
 L  constraint1_6500
 L  constraint2_1170
 L  constraint2_1171
 L  constraint2_1172
 L  constraint2_1173
 L  constraint2_5640
 L  constraint2_5641
 L  constraint2_5642
 L  constraint2_5643
 L  constraint2_4230
 L  constraint2_4231
 L  constraint2_4232
 L  constraint2_4233
 L  constraint2_6270
 L  constraint2_6271
 L  constraint2_6272
 L  constraint2_6273
 L  constraint2_6500
 L  constraint2_6501
 L  constraint2_6502
 L  constraint2_6503
COLUMNS
    MARKER    'MARKER'                 'INTORG'
    Z_117_0_0  OBJ       -1.1168304847417509e-04
    Z_117_0_0  constraint1_1170  1
    Z_117_0_0  constraint2_1170  1
    Z_117_0_1  OBJ       -7.6818602762879322e-03
    Z_117_0_1  constraint1_1170  1
    Z_117_0_1  constraint2_1171  1
    Z_117_0_2  OBJ       -6.8433449490717668e-01
    Z_117_0_2  constraint1_1170  1
    Z_117_0_2  constraint2_1172  1
    Z_117_0_3  OBJ       -4.6423627236650347e-03
    Z_117_0_3  constraint1_1170  1
    Z_117_0_3  constraint2_1173  1
    Z_117_0_4  OBJ       -2.0322959904439636e-01
    Z_117_0_4  constraint1_1170  1
    Z_564_0_0  OBJ       -9.3539129807101399e-04
    Z_564_0_0  constraint1_5640  1
    Z_564_0_0  constraint2_5640  1
    Z_564_0_1  OBJ       -1.6790420234511871e-03
    Z_564_0_1  constraint1_5640  1
    Z_564_0_1  constraint2_5641  1
    Z_564_0_2  OBJ       -7.0724570783873375e-01
    Z_564_0_2  constraint1_5640  1
    Z_564_0_2  constraint2_5642  1
    Z_564_0_3  OBJ       -6.1213209190723100e-03
    Z_564_0_3  constraint1_5640  1
    Z_564_0_3  constraint2_5643  1
    Z_564_0_4  OBJ       -1.8401853792067177e-01
    Z_564_0_4  constraint1_5640  1
    Z_423_2_0  OBJ       -3.4316358073937371e-03
    Z_423_2_0  constraint1_4232  1
    Z_423_2_0  constraint2_4230  1
    Z_423_2_1  OBJ       -2.0344626127326744e-02
    Z_423_2_1  constraint1_4232  1
    Z_423_2_1  constraint2_4231  1
    Z_423_2_2  OBJ       -3.6113288588063681e-02
    Z_423_2_2  constraint1_4232  1
    Z_423_2_2  constraint2_4232  1
    Z_423_2_3  OBJ       -4.9299608632111275e-02
    Z_423_2_3  constraint1_4232  1
    Z_423_2_3  constraint2_4233  1
    Z_423_2_4  OBJ       -7.9081084084510456e-01
    Z_423_2_4  constraint1_4232  1
    Z_423_7_0  OBJ       -4.2439331802353479e-02
    Z_423_7_0  constraint1_4237  1
    Z_423_7_0  constraint2_4230  1
    Z_423_7_1  OBJ       -8.3531446506851775e-03
    Z_423_7_1  constraint1_4237  1
    Z_423_7_1  constraint2_4231  1
    Z_423_7_2  OBJ       -4.0132182203489651e-02
    Z_423_7_2  constraint1_4237  1
    Z_423_7_2  constraint2_4232  1
    Z_423_7_3  OBJ       -4.2392844068266079e-02
    Z_423_7_3  constraint1_4237  1
    Z_423_7_3  constraint2_4233  1
    Z_423_7_4  OBJ       -7.6668249727520565e-01
    Z_423_7_4  constraint1_4237  1
    Z_423_4_0  OBJ       -3.4316358073937371e-03
    Z_423_4_0  constraint1_4234  1
    Z_423_4_0  constraint2_4230  1
    Z_423_4_1  OBJ       -2.0344626127326744e-02
    Z_423_4_1  constraint1_4234  1
    Z_423_4_1  constraint2_4231  1
    Z_423_4_2  OBJ       -3.6113288588063681e-02
    Z_423_4_2  constraint1_4234  1
    Z_423_4_2  constraint2_4232  1
    Z_423_4_3  OBJ       -4.9299608632111275e-02
    Z_423_4_3  constraint1_4234  1
    Z_423_4_3  constraint2_4233  1
    Z_423_4_4  OBJ       -7.9081084084510456e-01
    Z_423_4_4  constraint1_4234  1
    Z_423_6_0  OBJ       -5.7923172755536795e-02
    Z_423_6_0  constraint1_4236  1
    Z_423_6_0  constraint2_4230  1
    Z_423_6_1  OBJ       -1.2074652315715053e-02
    Z_423_6_1  constraint1_4236  1
    Z_423_6_1  constraint2_4231  1
    Z_423_6_2  OBJ       -3.8537511287607781e-02
    Z_423_6_2  constraint1_4236  1
    Z_423_6_2  constraint2_4232  1
    Z_423_6_3  OBJ       -4.4468436146692776e-02
    Z_423_6_3  constraint1_4236  1
    Z_423_6_3  constraint2_4233  1
    Z_423_6_4  OBJ       -7.4699622749444750e-01
    Z_423_6_4  constraint1_4236  1
    Z_423_5_0  OBJ       -7.4375080548826578e-02
    Z_423_5_0  constraint1_4235  1
    Z_423_5_0  constraint2_4230  1
    Z_423_5_1  OBJ       -1.1091992787158727e-02
    Z_423_5_1  constraint1_4235  1
    Z_423_5_1  constraint2_4231  1
    Z_423_5_2  OBJ       -2.6872179923894873e-02
    Z_423_5_2  constraint1_4235  1
    Z_423_5_2  constraint2_4232  1
    Z_423_5_3  OBJ       -3.0780863989865365e-02
    Z_423_5_3  constraint1_4235  1
    Z_423_5_3  constraint2_4233  1
    Z_423_5_4  OBJ       -7.5687988275025442e-01
    Z_423_5_4  constraint1_4235  1
    Z_423_1_0  OBJ       -3.4316358073937371e-03
    Z_423_1_0  constraint1_4231  1
    Z_423_1_0  constraint2_4230  1
    Z_423_1_1  OBJ       -2.0344626127326744e-02
    Z_423_1_1  constraint1_4231  1
    Z_423_1_1  constraint2_4231  1
    Z_423_1_2  OBJ       -3.6113288588063681e-02
    Z_423_1_2  constraint1_4231  1
    Z_423_1_2  constraint2_4232  1
    Z_423_1_3  OBJ       -4.9299608632111275e-02
    Z_423_1_3  constraint1_4231  1
    Z_423_1_3  constraint2_4233  1
    Z_423_1_4  OBJ       -7.9081084084510456e-01
    Z_423_1_4  constraint1_4231  1
    Z_423_8_0  OBJ       -1.6779683746088706e-03
    Z_423_8_0  constraint1_4238  1
    Z_423_8_0  constraint2_4230  1
    Z_423_8_1  OBJ       -3.7506270826295790e-02
    Z_423_8_1  constraint1_4238  1
    Z_423_8_1  constraint2_4231  1
    Z_423_8_2  OBJ       -3.8055867687549934e-02
    Z_423_8_2  constraint1_4238  1
    Z_423_8_2  constraint2_4232  1
    Z_423_8_3  OBJ       -1.5701319735142125e-01
    Z_423_8_3  constraint1_4238  1
    Z_423_8_3  constraint2_4233  1
    Z_423_8_4  OBJ       -6.6574669576012424e-01
    Z_423_8_4  constraint1_4238  1
    Z_423_10_0  OBJ       -1.4070917561804736e-01
    Z_423_10_0  constraint1_42310  1
    Z_423_10_0  constraint2_4230  1
    Z_423_10_1  OBJ       -9.8649120036444729e-02
    Z_423_10_1  constraint1_42310  1
    Z_423_10_1  constraint2_4231  1
    Z_423_10_2  OBJ       -1.3322098700142870e-02
    Z_423_10_2  constraint1_42310  1
    Z_423_10_2  constraint2_4232  1
    Z_423_10_3  OBJ       -1.4968034816034964e-01
    Z_423_10_3  constraint1_42310  1
    Z_423_10_3  constraint2_4233  1
    Z_423_10_4  OBJ       -4.9763925748501547e-01
    Z_423_10_4  constraint1_42310  1
    Z_423_9_0  OBJ       -1.6779683746088706e-03
    Z_423_9_0  constraint1_4239  1
    Z_423_9_0  constraint2_4230  1
    Z_423_9_1  OBJ       -3.7506270826295790e-02
    Z_423_9_1  constraint1_4239  1
    Z_423_9_1  constraint2_4231  1
    Z_423_9_2  OBJ       -3.8055867687549934e-02
    Z_423_9_2  constraint1_4239  1
    Z_423_9_2  constraint2_4232  1
    Z_423_9_3  OBJ       -1.5701319735142125e-01
    Z_423_9_3  constraint1_4239  1
    Z_423_9_3  constraint2_4233  1
    Z_423_9_4  OBJ       -6.6574669576012424e-01
    Z_423_9_4  constraint1_4239  1
    Z_423_0_0  OBJ       -9.9344882738852235e-04
    Z_423_0_0  constraint1_4230  1
    Z_423_0_0  constraint2_4230  1
    Z_423_0_1  OBJ       -8.5024666378519036e-04
    Z_423_0_1  constraint1_4230  1
    Z_423_0_1  constraint2_4231  1
    Z_423_0_2  OBJ       -6.4353782521381198e-01
    Z_423_0_2  constraint1_4230  1
    Z_423_0_2  constraint2_4232  1
    Z_423_0_3  OBJ       -2.6347561094763054e-03
    Z_423_0_3  constraint1_4230  1
    Z_423_0_3  constraint2_4233  1
    Z_423_0_4  OBJ       -2.5198372318553808e-01
    Z_423_0_4  constraint1_4230  1
    Z_627_1_0  OBJ       -2.8896220126703553e-03
    Z_627_1_0  constraint1_6271  1
    Z_627_1_0  constraint2_6270  1
    Z_627_1_1  OBJ       -5.5317392298853659e-03
    Z_627_1_1  constraint1_6271  1
    Z_627_1_1  constraint2_6271  1
    Z_627_1_2  OBJ       -4.2116549254399466e-01
    Z_627_1_2  constraint1_6271  1
    Z_627_1_2  constraint2_6272  1
    Z_627_1_3  OBJ       -1.1751690780321463e-04
    Z_627_1_3  constraint1_6271  1
    Z_627_1_3  constraint2_6273  1
    Z_627_1_4  OBJ       -4.7029562930564656e-01
    Z_627_1_4  constraint1_6271  1
    Z_627_2_0  OBJ       -3.7189350161230444e-01
    Z_627_2_0  constraint1_6272  1
    Z_627_2_0  constraint2_6270  1
    Z_627_2_1  OBJ       -2.0305947952735808e-02
    Z_627_2_1  constraint1_6272  1
    Z_627_2_1  constraint2_6271  1
    Z_627_2_2  OBJ       -2.9141519164678793e-03
    Z_627_2_2  constraint1_6272  1
    Z_627_2_2  constraint2_6272  1
    Z_627_2_3  OBJ       -1.5109975063807535e-02
    Z_627_2_3  constraint1_6272  1
    Z_627_2_3  constraint2_6273  1
    Z_627_2_4  OBJ       -4.8977642345468431e-01
    Z_627_2_4  constraint1_6272  1
    Z_627_0_0  OBJ       -1.0691914684053045e-03
    Z_627_0_0  constraint1_6270  1
    Z_627_0_0  constraint2_6270  1
    Z_627_0_1  OBJ       -9.1336059619537507e-04
    Z_627_0_1  constraint1_6270  1
    Z_627_0_1  constraint2_6271  1
    Z_627_0_2  OBJ       -7.0705578119795209e-01
    Z_627_0_2  constraint1_6270  1
    Z_627_0_2  constraint2_6272  1
    Z_627_0_3  OBJ       -5.1579177944356125e-03
    Z_627_0_3  constraint1_6270  1
    Z_627_0_3  constraint2_6273  1
    Z_627_0_4  OBJ       -1.8580374894301163e-01
    Z_627_0_4  constraint1_6270  1
    Z_650_0_0  OBJ       -7.9760552028463369e-04
    Z_650_0_0  constraint1_6500  1
    Z_650_0_0  constraint2_6500  1
    Z_650_0_1  OBJ       -1.4272493039186587e-03
    Z_650_0_1  constraint1_6500  1
    Z_650_0_1  constraint2_6501  1
    Z_650_0_2  OBJ       -6.6280488862601661e-01
    Z_650_0_2  constraint1_6500  1
    Z_650_0_2  constraint2_6502  1
    Z_650_0_3  OBJ       -2.8790092520368424e-03
    Z_650_0_3  constraint1_6500  1
    Z_650_0_3  constraint2_6503  1
    Z_650_0_4  OBJ       -2.3209124729774322e-01
    Z_650_0_4  constraint1_6500  1
    MARKER    'MARKER'                 'INTEND'
RHS
    RHS1      constraint1_1170  1
    RHS1      constraint1_5640  1
    RHS1      constraint1_4232  1
    RHS1      constraint1_4237  1
    RHS1      constraint1_4234  1
    RHS1      constraint1_4236  1
    RHS1      constraint1_4235  1
    RHS1      constraint1_4231  1
    RHS1      constraint1_4238  1
    RHS1      constraint1_42310  1
    RHS1      constraint1_4239  1
    RHS1      constraint1_4230  1
    RHS1      constraint1_6271  1
    RHS1      constraint1_6272  1
    RHS1      constraint1_6270  1
    RHS1      constraint1_6500  1
    RHS1      constraint2_1170  1
    RHS1      constraint2_1171  1
    RHS1      constraint2_1172  1
    RHS1      constraint2_1173  1
    RHS1      constraint2_5640  1
    RHS1      constraint2_5641  1
    RHS1      constraint2_5642  1
    RHS1      constraint2_5643  1
    RHS1      constraint2_4230  1
    RHS1      constraint2_4231  1
    RHS1      constraint2_4232  1
    RHS1      constraint2_4233  1
    RHS1      constraint2_6270  1
    RHS1      constraint2_6271  1
    RHS1      constraint2_6272  1
    RHS1      constraint2_6273  1
    RHS1      constraint2_6500  1
    RHS1      constraint2_6501  1
    RHS1      constraint2_6502  1
    RHS1      constraint2_6503  1
BOUNDS
 UP BND1      Z_117_0_0  1
 UP BND1      Z_117_0_1  1
 UP BND1      Z_117_0_2  1
 UP BND1      Z_117_0_3  1
 UP BND1      Z_117_0_4  1
 UP BND1      Z_564_0_0  1
 UP BND1      Z_564_0_1  1
 UP BND1      Z_564_0_2  1
 UP BND1      Z_564_0_3  1
 UP BND1      Z_564_0_4  1
 UP BND1      Z_423_2_0  1
 UP BND1      Z_423_2_1  1
 UP BND1      Z_423_2_2  1
 UP BND1      Z_423_2_3  1
 UP BND1      Z_423_2_4  1
 UP BND1      Z_423_7_0  1
 UP BND1      Z_423_7_1  1
 UP BND1      Z_423_7_2  1
 UP BND1      Z_423_7_3  1
 UP BND1      Z_423_7_4  1
 UP BND1      Z_423_4_0  1
 UP BND1      Z_423_4_1  1
 UP BND1      Z_423_4_2  1
 UP BND1      Z_423_4_3  1
 UP BND1      Z_423_4_4  1
 UP BND1      Z_423_6_0  1
 UP BND1      Z_423_6_1  1
 UP BND1      Z_423_6_2  1
 UP BND1      Z_423_6_3  1
 UP BND1      Z_423_6_4  1
 UP BND1      Z_423_5_0  1
 UP BND1      Z_423_5_1  1
 UP BND1      Z_423_5_2  1
 UP BND1      Z_423_5_3  1
 UP BND1      Z_423_5_4  1
 UP BND1      Z_423_1_0  1
 UP BND1      Z_423_1_1  1
 UP BND1      Z_423_1_2  1
 UP BND1      Z_423_1_3  1
 UP BND1      Z_423_1_4  1
 UP BND1      Z_423_8_0  1
 UP BND1      Z_423_8_1  1
 UP BND1      Z_423_8_2  1
 UP BND1      Z_423_8_3  1
 UP BND1      Z_423_8_4  1
 UP BND1      Z_423_10_0  1
 UP BND1      Z_423_10_1  1
 UP BND1      Z_423_10_2  1
 UP BND1      Z_423_10_3  1
 UP BND1      Z_423_10_4  1
 UP BND1      Z_423_9_0  1
 UP BND1      Z_423_9_1  1
 UP BND1      Z_423_9_2  1
 UP BND1      Z_423_9_3  1
 UP BND1      Z_423_9_4  1
 UP BND1      Z_423_0_0  1
 UP BND1      Z_423_0_1  1
 UP BND1      Z_423_0_2  1
 UP BND1      Z_423_0_3  1
 UP BND1      Z_423_0_4  1
 UP BND1      Z_627_1_0  1
 UP BND1      Z_627_1_1  1
 UP BND1      Z_627_1_2  1
 UP BND1      Z_627_1_3  1
 UP BND1      Z_627_1_4  1
 UP BND1      Z_627_2_0  1
 UP BND1      Z_627_2_1  1
 UP BND1      Z_627_2_2  1
 UP BND1      Z_627_2_3  1
 UP BND1      Z_627_2_4  1
 UP BND1      Z_627_0_0  1
 UP BND1      Z_627_0_1  1
 UP BND1      Z_627_0_2  1
 UP BND1      Z_627_0_3  1
 UP BND1      Z_627_0_4  1
 UP BND1      Z_650_0_0  1
 UP BND1      Z_650_0_1  1
 UP BND1      Z_650_0_2  1
 UP BND1      Z_650_0_3  1
 UP BND1      Z_650_0_4  1
ENDATA
